% MCP DATA

% Set data parameters
m = 6; % Number of couriers
n = 8; % Number of items
capacity = [300, 200, 200, 200, 100, 100]; % Courier capacities
itemSize = [16, 25, 21, 14, 19, 14, 6, 20]; % Item sizes
distanceMatrix = [|0, 80, 131, 22, 41, 127, 87, 48, 113
                  |60, 0, 85, 82, 101, 81, 53, 106, 57
                  |141, 83, 0, 129, 182, 4, 64, 189, 28
                  |22, 82, 129, 0, 55, 125, 65, 66, 101
                  |41, 99, 172, 55, 0, 168, 118, 11, 154
                  |137, 81, 4, 125, 178, 0, 60, 185, 32
                  |77, 63, 64, 65, 118, 60, 0, 125, 36
                  |48, 126, 179, 60, 58, 175, 125, 0, 161
                  |113, 57, 28, 101, 154, 24, 36, 161, 0
                  |];
is_symmetric = false;
min_used_capacities = [6, 6, 6, 6, 6, 6];
max_used_capacities = [72, 72, 72, 72, 72, 72];
min_durations = [1, 1, 1, 1, 1, 1];
max_durations = [6, 6, 6, 6, 6, 6];
